proyfinal/src/viki/013/andrea/andrea-localstore/experimentInOfficeAgust.take6/worker_1/beca6ef8-5406-4919-ad9b-0c72bac5497a.als.cnf.out
Reading from standard input... Use '--help' for help.
============================[ Problem Statistics ]=============================
|                                                                             |
|  Number of variables:         87638                                         |
|  Number of clauses:          161767                                         |
|  Parse time:                   0.04 s                                       |
|                                                                             |
============================[ Search Statistics ]==============================
| Conflicts |          ORIGINAL         |          LEARNT          | Progress |
|           |    Vars  Clauses Literals |    Limit  Clauses Lit/Cl |          |
===============================================================================
|       100 |   62367   105061   262590 |    38522      100      9 | 28.836 % |
|       250 |   62367   105061   262590 |    42374      250     45 | 28.836 % |
|       475 |   62367   105061   262590 |    46612      475     89 | 28.836 % |
|       812 |   62366   105017   262500 |    51273      811     73 | 28.837 % |
|      1318 |   62366   105017   262500 |    56400     1317     86 | 28.837 % |
|      2077 |   62366   105017   262500 |    62040     2076     80 | 28.837 % |
|      3216 |   62346   104939   262313 |    68244     2462     73 | 28.860 % |
|      4924 |   46894    60832   153596 |    75069     4072     75 | 46.491 % |
|      7486 |   46716    60030   151719 |    82576     6334     61 | 46.694 % |
===============================================================================
restarts              : 41
conflicts             : 9442           (8250 /sec)
decisions             : 27089          (0.00 % random) (23669 /sec)
propagations          : 13310951       (11630211 /sec)
conflict literals     : 502508         (47.94 % deleted)
Memory used           : 30.45 MB
CPU time              : 1.14451 s

UNSATISFIABLE
